3 40 1 10
18 16 15 3 9 10 1 8 1 20 20 6 9 11 12 6 15 14 13 6 16 10 12 15 10 6 10 6 18 9 20 20 8 10 5 19 19 17 6 6 
5.75 7.64 1.89 3.38 4.76 3.03 2.54 6.29 0.34 1.4 0.17 6.73 2.41 0.53 3.71 5.89 3.52 2.17 3.53 6.81 4.03 4.35 1.05 0.07 5.2 1.49 6.16 2.72 3.53 7.18 3.72 3.7 1 6.28 0.26 1.96 1.97 3.73 3.45 3.43 
4 4 4 4 4 4 4 4 4 4 4 4 4 4 4 4 4 4 4 4 4 4 4 4 4 4 4 4 4 4 4 4 4 4 4 4 4 4 4 4 
0.88 0.69 2.86 7.71 3.77 2.09 4.3 5.9 5.87 7.75 4.2 6.18 1.41 6.42 2.47 1.61 3.49 7.61 4.35 4.25 3.37 7.29 3.15 2.38 7.29 5.45 5.34 3.54 7.42 3.34 1.38 2.13 5.36 1.58 3.82 3.66 2.56 2.51 0.41 5.31 
1 1 1 1 1 1 1 1 1 1 1 1 1 1 1 1 1 1 1 1 1 1 1 1 1 1 1 1 1 1 1 1 1 1 1 1 1 1 1 1 
1 1 1 1 1 1 1 1 1 1 1 1 1 1 1 1 1 1 1 1 1 1 1 1 1 1 1 1 1 1 1 1 1 1 1 1 1 1 1 1 
1 1 1 1 1 1 1 1 1 1 1 1 1 1 1 1 1 1 1 1 1 1 1 1 1 1 1 1 1 1 1 1 1 1 1 1 1 1 1 1 
0.01 0.01 0.01 0.01 0.01 0.01 0.01 0.01 0.01 0.01 0.01 0.01 0.01 0.01 0.01 0.01 0.01 0.01 0.01 0.01 0.01 0.01 0.01 0.01 0.01 0.01 0.01 0.01 0.01 0.01 0.01 0.01 0.01 0.01 0.01 0.01 0.01 0.01 0.01 0.01 
0.02 0.02 0.02 0.02 0.02 0.02 0.02 0.02 0.02 0.02 0.02 0.02 0.02 0.02 0.02 0.02 0.02 0.02 0.02 0.02 0.02 0.02 0.02 0.02 0.02 0.02 0.02 0.02 0.02 0.02 0.02 0.02 0.02 0.02 0.02 0.02 0.02 0.02 0.02 0.02 
1 1 1 1 1 1 1 1 1 1 1 1 1 1 1 1 1 1 1 1 1 1 1 1 1 1 1 1 1 1 1 1 1 1 1 1 1 1 1 1 
